
  22    4
  10   10   10   10

   0   0   0   0   0   7 2 3 4 5 6 7 8 
   4  10  10  10  10   5 17 16 11 10 9 
   8  10  10  10  10   5 17 16 11 10 9 
   8  10  10  10  10   3 16 11 9 
   2  10  10  10  10   4 15 13 12 10 
   7  10  10  10  10   2 12 9 
   1  10  10  10  10   2 11 9 
   4  10  10  10  10   2 15 10 
   7  10  10  10  10   3 15 14 13 
   3  10  10  10  10   3 21 20 14 
   1  10  10  10  10   4 21 20 19 18 
   1  10  10  10  10   2 21 14 
   5  10  10  10  10   3 20 19 18 
   6  10  10  10  10   2 19 18 
   6  10  10  10  10   1 18 
   9  10  10  10  10   1 18 
   8  10  10  10  10   1 19 
   1  10  10  10  10   1 22
  10  10  10  10  10   1 22
   8  10  10  10  10   1 22
   6  10  10  10  10   1 22
   0   0   0   0   0   0 
